data;
param D := 2;
param E := 24;
param N := 16;
param Pd := 2;

param: link_src    link_dest    link_capacity  :=
1        1             2              100
2        2             3              200
3        2             3              200
4        2             3              200
5        2             6              100
6        3             4              200
7        3             5              200
8        3             5              200
9        4             10             200
10       5             7              200
11       5             8              200
12       6             9              100
13       7             10             200
14       8             10             200
15       9             10             100
16       2             11             200
17       2             13             100
18       1             12             100
19       11            13             200
20       12            14             100
21       13            16             200
22       13            15             100
23       15            16             100
24       14            16             100;

param: demand_src    demand_dest    h    :=
1          1              10        500
2          1              16        500;

 set Routes[2,1] := 18 20 24;
 set Routes[2,2] := 1 17 22 23;
 set Routes[2,3] := 1 16 19 21;
 set Routes[2,4] := 1 17 21;
 set Routes[2,5] := 1 16 19 22 23;

set Routes[1,1] := 1 5 12 15;

set Routes[1,2] := 1 2 6 9;

set Routes[1,3] := 1 2 7 10 13;
set Routes[1,4] := 1 2 7 11 14;
set Routes[1,5] := 1 2 8 10 13;
set Routes[1,6] := 1 2 8 11 14;

set Routes[1,7] := 1 3 6 9;
set Routes[1,8] := 1 3 7 10 13;
set Routes[1,9] := 1 3 7 11 14;
set Routes[1,10] := 1 3 8 10 13;
set Routes[1,11] := 1 3 8 11 14;

set Routes[1,12] := 1 4 6 9;
set Routes[1,13] := 1 4 7 10 13;
set Routes[1,14] := 1 4 7 11 14;
set Routes[1,15] := 1 4 8 10 13;
set Routes[1,16] := 1 4 8 11 14;

end;